NAME : n60w120.005.579.tour
COMMENT : Length = 579
COMMENT : Found by LKH [Keld Helsgaun] Tue May  2 05:47:32 2017
TYPE : TOUR
DIMENSION : 61
TOUR_SECTION
1
36
14
12
9
19
43
52
27
51
13
11
21
56
17
45
48
34
8
30
29
4
38
35
46
50
20
59
3
22
26
33
49
47
2
54
58
40
7
18
57
53
23
28
37
55
32
44
24
39
41
60
31
15
10
6
25
61
16
5
42
-1
EOF
